p cnf 853 2591
1 -5 51 0
-1 -5 -51 0
1 5 -51 0
-1 5 51 0
7 8 52 0
-7 8 -52 0
7 -8 -52 0
-7 -8 52 0
-9 11 53 0
9 11 -53 0
-9 -11 -53 0
9 -11 53 0
-13 -18 54 0
13 -18 -54 0
-13 18 -54 0
13 18 54 0
19 -20 55 0
-19 -20 -55 0
19 20 -55 0
-19 20 55 0
22 26 56 0
-22 26 -56 0
22 -26 -56 0
-22 -26 56 0
-27 33 57 0
27 33 -57 0
-27 -33 -57 0
27 -33 57 0
40 41 58 0
-40 41 -58 0
40 -41 -58 0
-40 -41 58 0
44 -47 59 0
-44 -47 -59 0
44 47 -59 0
-44 47 59 0
51 -52 60 0
-51 -52 -60 0
51 52 -60 0
-51 52 60 0
53 -54 61 0
-53 -54 -61 0
53 54 -61 0
-53 54 61 0
55 -56 62 0
-55 -56 -62 0
55 56 -62 0
-55 56 62 0
57 -58 63 0
-57 -58 -63 0
57 58 -63 0
-57 58 63 0
59 -60 64 0
-59 -60 -64 0
59 60 -64 0
-59 60 64 0
61 -62 65 0
-61 -62 -65 0
61 62 -65 0
-61 62 65 0
-63 -64 65 0
63 -64 -65 0
-63 64 -65 0
63 64 65 0
-2 -3 66 0
2 -3 -66 0
-2 3 -66 0
2 3 66 0
-4 8 67 0
4 8 -67 0
-4 -8 -67 0
4 -8 67 0
-9 -10 68 0
9 -10 -68 0
-9 10 -68 0
9 10 68 0
13 -17 69 0
-13 -17 -69 0
13 17 -69 0
-13 17 69 0
-20 -21 70 0
20 -21 -70 0
-20 21 -70 0
20 21 70 0
22 -23 71 0
-22 -23 -71 0
22 23 -71 0
-22 23 71 0
25 -26 72 0
-25 -26 -72 0
25 26 -72 0
-25 26 72 0
-27 30 73 0
27 30 -73 0
-27 -30 -73 0
27 -30 73 0
-32 -33 74 0
32 -33 -74 0
-32 33 -74 0
32 33 74 0
-38 -41 75 0
38 -41 -75 0
-38 41 -75 0
38 41 75 0
-43 44 76 0
43 44 -76 0
-43 -44 -76 0
43 -44 76 0
45 46 77 0
-45 46 -77 0
45 -46 -77 0
-45 -46 77 0
66 -67 78 0
-66 -67 -78 0
66 67 -78 0
-66 67 78 0
68 -69 79 0
-68 -69 -79 0
68 69 -79 0
-68 69 79 0
70 -71 80 0
-70 -71 -80 0
70 71 -80 0
-70 71 80 0
72 -73 81 0
-72 -73 -81 0
72 73 -81 0
-72 73 81 0
74 -75 82 0
-74 -75 -82 0
74 75 -82 0
-74 75 82 0
76 -77 83 0
-76 -77 -83 0
76 77 -83 0
-76 77 83 0
78 -79 84 0
-78 -79 -84 0
78 79 -84 0
-78 79 84 0
80 -81 85 0
-80 -81 -85 0
80 81 -85 0
-80 81 85 0
82 -83 86 0
-82 -83 -86 0
82 83 -86 0
-82 83 86 0
-84 -85 86 0
84 -85 -86 0
-84 85 -86 0
84 85 86 0
2 3 87 0
-2 3 -87 0
2 -3 -87 0
-2 -3 87 0
-4 5 88 0
4 5 -88 0
-4 -5 -88 0
4 -5 88 0
6 7 89 0
-6 7 -89 0
6 -7 -89 0
-6 -7 89 0
-16 17 90 0
16 17 -90 0
-16 -17 -90 0
16 -17 90 0
18 19 91 0
-18 19 -91 0
18 -19 -91 0
-18 -19 91 0
-20 -21 92 0
20 -21 -92 0
-20 21 -92 0
20 21 92 0
-22 -23 93 0
22 -23 -93 0
-22 23 -93 0
22 23 93 0
24 -25 94 0
-24 -25 -94 0
24 25 -94 0
-24 25 94 0
27 -28 95 0
-27 -28 -95 0
27 28 -95 0
-27 28 95 0
29 31 96 0
-29 31 -96 0
29 -31 -96 0
-29 -31 96 0
32 35 97 0
-32 35 -97 0
32 -35 -97 0
-32 -35 97 0
37 -38 98 0
-37 -38 -98 0
37 38 -98 0
-37 38 98 0
39 41 99 0
-39 41 -99 0
39 -41 -99 0
-39 -41 99 0
42 -43 100 0
-42 -43 -100 0
42 43 -100 0
-42 43 100 0
-45 46 101 0
45 46 -101 0
-45 -46 -101 0
45 -46 101 0
-47 -48 102 0
47 -48 -102 0
-47 48 -102 0
47 48 102 0
87 -88 103 0
-87 -88 -103 0
87 88 -103 0
-87 88 103 0
89 -90 104 0
-89 -90 -104 0
89 90 -104 0
-89 90 104 0
91 -92 105 0
-91 -92 -105 0
91 92 -105 0
-91 92 105 0
93 -94 106 0
-93 -94 -106 0
93 94 -106 0
-93 94 106 0
95 -96 107 0
-95 -96 -107 0
95 96 -107 0
-95 96 107 0
97 -98 108 0
-97 -98 -108 0
97 98 -108 0
-97 98 108 0
99 -100 109 0
-99 -100 -109 0
99 100 -109 0
-99 100 109 0
101 -102 110 0
-101 -102 -110 0
101 102 -110 0
-101 102 110 0
103 -104 111 0
-103 -104 -111 0
103 104 -111 0
-103 104 111 0
105 -106 112 0
-105 -106 -112 0
105 106 -112 0
-105 106 112 0
107 -108 113 0
-107 -108 -113 0
107 108 -113 0
-107 108 113 0
109 -110 114 0
-109 -110 -114 0
109 110 -114 0
-109 110 114 0
111 -112 115 0
-111 -112 -115 0
111 112 -115 0
-111 112 115 0
113 -114 116 0
-113 -114 -116 0
113 114 -116 0
-113 114 116 0
115 116 0
-115 -116 0
-6 -8 117 0
6 -8 -117 0
-6 8 -117 0
6 8 117 0
-11 13 118 0
11 13 -118 0
-11 -13 -118 0
11 -13 118 0
15 -17 119 0
-15 -17 -119 0
15 17 -119 0
-15 17 119 0
20 -24 120 0
-20 -24 -120 0
20 24 -120 0
-20 24 120 0
27 28 121 0
-27 28 -121 0
27 -28 -121 0
-27 -28 121 0
-33 39 122 0
33 39 -122 0
-33 -39 -122 0
33 -39 122 0
40 -41 123 0
-40 -41 -123 0
40 41 -123 0
-40 41 123 0
44 -45 124 0
-44 -45 -124 0
44 45 -124 0
-44 45 124 0
-46 47 125 0
46 47 -125 0
-46 -47 -125 0
46 -47 125 0
117 -118 126 0
-117 -118 -126 0
117 118 -126 0
-117 118 126 0
119 -120 127 0
-119 -120 -127 0
119 120 -127 0
-119 120 127 0
121 -122 128 0
-121 -122 -128 0
121 122 -128 0
-121 122 128 0
123 -124 129 0
-123 -124 -129 0
123 124 -129 0
-123 124 129 0
125 -126 130 0
-125 -126 -130 0
125 126 -130 0
-125 126 130 0
127 -128 131 0
-127 -128 -131 0
127 128 -131 0
-127 128 131 0
-129 -130 131 0
129 -130 -131 0
-129 130 -131 0
129 130 131 0
1 -2 132 0
-1 -2 -132 0
1 2 -132 0
-1 2 132 0
-4 -9 133 0
4 -9 -133 0
-4 9 -133 0
4 9 133 0
-13 -17 134 0
13 -17 -134 0
-13 17 -134 0
13 17 134 0
-21 -24 135 0
21 -24 -135 0
-21 24 -135 0
21 24 135 0
25 27 136 0
-25 27 -136 0
25 -27 -136 0
-25 -27 136 0
-29 -34 137 0
29 -34 -137 0
-29 34 -137 0
29 34 137 0
-35 -36 138 0
35 -36 -138 0
-35 36 -138 0
35 36 138 0
-37 -45 139 0
37 -45 -139 0
-37 45 -139 0
37 45 139 0
46 49 140 0
-46 49 -140 0
46 -49 -140 0
-46 -49 140 0
131 -132 141 0
-131 -132 -141 0
131 132 -141 0
-131 132 141 0
133 -134 142 0
-133 -134 -142 0
133 134 -142 0
-133 134 142 0
135 -136 143 0
-135 -136 -143 0
135 136 -143 0
-135 136 143 0
137 -138 144 0
-137 -138 -144 0
137 138 -144 0
-137 138 144 0
139 -140 145 0
-139 -140 -145 0
139 140 -145 0
-139 140 145 0
141 -142 146 0
-141 -142 -146 0
141 142 -146 0
-141 142 146 0
143 -144 147 0
-143 -144 -147 0
143 144 -147 0
-143 144 147 0
-145 -146 147 0
145 -146 -147 0
-145 146 -147 0
145 146 147 0
1 2 148 0
-1 2 -148 0
1 -2 -148 0
-1 -2 148 0
3 -5 149 0
-3 -5 -149 0
3 5 -149 0
-3 5 149 0
-7 -8 150 0
7 -8 -150 0
-7 8 -150 0
7 8 150 0
-9 -14 151 0
9 -14 -151 0
-9 14 -151 0
9 14 151 0
15 -17 152 0
-15 -17 -152 0
15 17 -152 0
-15 17 152 0
19 20 153 0
-19 20 -153 0
19 -20 -153 0
-19 -20 153 0
-24 26 154 0
24 26 -154 0
-24 -26 -154 0
24 -26 154 0
-27 -30 155 0
27 -30 -155 0
-27 30 -155 0
27 30 155 0
32 35 156 0
-32 35 -156 0
32 -35 -156 0
-32 -35 156 0
-38 -39 157 0
38 -39 -157 0
-38 39 -157 0
38 39 157 0
40 -41 158 0
-40 -41 -158 0
40 41 -158 0
-40 41 158 0
42 43 159 0
-42 43 -159 0
42 -43 -159 0
-42 -43 159 0
45 46 160 0
-45 46 -160 0
45 -46 -160 0
-45 -46 160 0
147 -148 161 0
-147 -148 -161 0
147 148 -161 0
-147 148 161 0
149 -150 162 0
-149 -150 -162 0
149 150 -162 0
-149 150 162 0
151 -152 163 0
-151 -152 -163 0
151 152 -163 0
-151 152 163 0
153 -154 164 0
-153 -154 -164 0
153 154 -164 0
-153 154 164 0
155 -156 165 0
-155 -156 -165 0
155 156 -165 0
-155 156 165 0
157 -158 166 0
-157 -158 -166 0
157 158 -166 0
-157 158 166 0
159 -160 167 0
-159 -160 -167 0
159 160 -167 0
-159 160 167 0
161 -162 168 0
-161 -162 -168 0
161 162 -168 0
-161 162 168 0
163 -164 169 0
-163 -164 -169 0
163 164 -169 0
-163 164 169 0
165 -166 170 0
-165 -166 -170 0
165 166 -170 0
-165 166 170 0
167 -168 171 0
-167 -168 -171 0
167 168 -171 0
-167 168 171 0
169 -170 172 0
-169 -170 -172 0
169 170 -172 0
-169 170 172 0
171 172 0
-171 -172 0
-6 9 173 0
6 9 -173 0
-6 -9 -173 0
6 -9 173 0
-17 18 174 0
17 18 -174 0
-17 -18 -174 0
17 -18 174 0
-19 20 175 0
19 20 -175 0
-19 -20 -175 0
19 -20 175 0
21 -24 176 0
-21 -24 -176 0
21 24 -176 0
-21 24 176 0
25 26 177 0
-25 26 -177 0
25 -26 -177 0
-25 -26 177 0
30 -32 178 0
-30 -32 -178 0
30 32 -178 0
-30 32 178 0
33 36 179 0
-33 36 -179 0
33 -36 -179 0
-33 -36 179 0
-37 40 180 0
37 40 -180 0
-37 -40 -180 0
37 -40 180 0
46 48 181 0
-46 48 -181 0
46 -48 -181 0
-46 -48 181 0
49 50 182 0
-49 50 -182 0
49 -50 -182 0
-49 -50 182 0
173 -174 183 0
-173 -174 -183 0
173 174 -183 0
-173 174 183 0
175 -176 184 0
-175 -176 -184 0
175 176 -184 0
-175 176 184 0
177 -178 185 0
-177 -178 -185 0
177 178 -185 0
-177 178 185 0
179 -180 186 0
-179 -180 -186 0
179 180 -186 0
-179 180 186 0
181 -182 187 0
-181 -182 -187 0
181 182 -187 0
-181 182 187 0
183 -184 188 0
-183 -184 -188 0
183 184 -188 0
-183 184 188 0
185 -186 189 0
-185 -186 -189 0
185 186 -189 0
-185 186 189 0
-187 -188 189 0
187 -188 -189 0
-187 188 -189 0
187 188 189 0
1 -2 190 0
-1 -2 -190 0
1 2 -190 0
-1 2 190 0
-3 -4 191 0
3 -4 -191 0
-3 4 -191 0
3 4 191 0
6 -7 192 0
-6 -7 -192 0
6 7 -192 0
-6 7 192 0
8 13 193 0
-8 13 -193 0
8 -13 -193 0
-8 -13 193 0
15 -16 194 0
-15 -16 -194 0
15 16 -194 0
-15 16 194 0
-18 -22 195 0
18 -22 -195 0
-18 22 -195 0
18 22 195 0
25 28 196 0
-25 28 -196 0
25 -28 -196 0
-25 -28 196 0
-35 36 197 0
35 36 -197 0
-35 -36 -197 0
35 -36 197 0
-39 -41 198 0
39 -41 -198 0
-39 41 -198 0
39 41 198 0
42 -45 199 0
-42 -45 -199 0
42 45 -199 0
-42 45 199 0
-46 -47 200 0
46 -47 -200 0
-46 47 -200 0
46 47 200 0
189 -190 201 0
-189 -190 -201 0
189 190 -201 0
-189 190 201 0
191 -192 202 0
-191 -192 -202 0
191 192 -202 0
-191 192 202 0
193 -194 203 0
-193 -194 -203 0
193 194 -203 0
-193 194 203 0
195 -196 204 0
-195 -196 -204 0
195 196 -204 0
-195 196 204 0
197 -198 205 0
-197 -198 -205 0
197 198 -205 0
-197 198 205 0
199 -200 206 0
-199 -200 -206 0
199 200 -206 0
-199 200 206 0
201 -202 207 0
-201 -202 -207 0
201 202 -207 0
-201 202 207 0
203 -204 208 0
-203 -204 -208 0
203 204 -208 0
-203 204 208 0
205 -206 209 0
-205 -206 -209 0
205 206 -209 0
-205 206 209 0
-207 -208 209 0
207 -208 -209 0
-207 208 -209 0
207 208 209 0
-1 -2 210 0
1 -2 -210 0
-1 2 -210 0
1 2 210 0
-3 -7 211 0
3 -7 -211 0
-3 7 -211 0
3 7 211 0
8 -9 212 0
-8 -9 -212 0
8 9 -212 0
-8 9 212 0
-10 11 213 0
10 11 -213 0
-10 -11 -213 0
10 -11 213 0
-14 -15 214 0
14 -15 -214 0
-14 15 -214 0
14 15 214 0
-17 -18 215 0
17 -18 -215 0
-17 18 -215 0
17 18 215 0
-19 -21 216 0
19 -21 -216 0
-19 21 -216 0
19 21 216 0
22 -23 217 0
-22 -23 -217 0
22 23 -217 0
-22 23 217 0
-24 -25 218 0
24 -25 -218 0
-24 25 -218 0
24 25 218 0
27 -29 219 0
-27 -29 -219 0
27 29 -219 0
-27 29 219 0
-32 -35 220 0
32 -35 -220 0
-32 35 -220 0
32 35 220 0
37 -43 221 0
-37 -43 -221 0
37 43 -221 0
-37 43 221 0
44 -45 222 0
-44 -45 -222 0
44 45 -222 0
-44 45 222 0
46 48 223 0
-46 48 -223 0
46 -48 -223 0
-46 -48 223 0
210 -211 224 0
-210 -211 -224 0
210 211 -224 0
-210 211 224 0
212 -213 225 0
-212 -213 -225 0
212 213 -225 0
-212 213 225 0
214 -215 226 0
-214 -215 -226 0
214 215 -226 0
-214 215 226 0
216 -217 227 0
-216 -217 -227 0
216 217 -227 0
-216 217 227 0
218 -219 228 0
-218 -219 -228 0
218 219 -228 0
-218 219 228 0
220 -221 229 0
-220 -221 -229 0
220 221 -229 0
-220 221 229 0
222 -223 230 0
-222 -223 -230 0
222 223 -230 0
-222 223 230 0
224 -225 231 0
-224 -225 -231 0
224 225 -231 0
-224 225 231 0
226 -227 232 0
-226 -227 -232 0
226 227 -232 0
-226 227 232 0
228 -229 233 0
-228 -229 -233 0
228 229 -233 0
-228 229 233 0
230 -231 234 0
-230 -231 -234 0
230 231 -234 0
-230 231 234 0
232 -233 235 0
-232 -233 -235 0
232 233 -235 0
-232 233 235 0
234 235 0
-234 -235 0
-3 -5 236 0
3 -5 -236 0
-3 5 -236 0
3 5 236 0
-7 9 237 0
7 9 -237 0
-7 -9 -237 0
7 -9 237 0
10 -12 238 0
-10 -12 -238 0
10 12 -238 0
-10 12 238 0
-13 -14 239 0
13 -14 -239 0
-13 14 -239 0
13 14 239 0
-15 16 240 0
15 16 -240 0
-15 -16 -240 0
15 -16 240 0
18 19 241 0
-18 19 -241 0
18 -19 -241 0
-18 -19 241 0
20 21 242 0
-20 21 -242 0
20 -21 -242 0
-20 -21 242 0
26 -29 243 0
-26 -29 -243 0
26 29 -243 0
-26 29 243 0
-31 -34 244 0
31 -34 -244 0
-31 34 -244 0
31 34 244 0
-38 39 245 0
38 39 -245 0
-38 -39 -245 0
38 -39 245 0
41 43 246 0
-41 43 -246 0
41 -43 -246 0
-41 -43 246 0
-44 47 247 0
44 47 -247 0
-44 -47 -247 0
44 -47 247 0
236 -237 248 0
-236 -237 -248 0
236 237 -248 0
-236 237 248 0
238 -239 249 0
-238 -239 -249 0
238 239 -249 0
-238 239 249 0
240 -241 250 0
-240 -241 -250 0
240 241 -250 0
-240 241 250 0
242 -243 251 0
-242 -243 -251 0
242 243 -251 0
-242 243 251 0
244 -245 252 0
-244 -245 -252 0
244 245 -252 0
-244 245 252 0
246 -247 253 0
-246 -247 -253 0
246 247 -253 0
-246 247 253 0
248 -249 254 0
-248 -249 -254 0
248 249 -254 0
-248 249 254 0
250 -251 255 0
-250 -251 -255 0
250 251 -255 0
-250 251 255 0
252 -253 256 0
-252 -253 -256 0
252 253 -256 0
-252 253 256 0
-254 -255 256 0
254 -255 -256 0
-254 255 -256 0
254 255 256 0
-1 2 257 0
1 2 -257 0
-1 -2 -257 0
1 -2 257 0
3 -4 258 0
-3 -4 -258 0
3 4 -258 0
-3 4 258 0
5 9 259 0
-5 9 -259 0
5 -9 -259 0
-5 -9 259 0
10 12 260 0
-10 12 -260 0
10 -12 -260 0
-10 -12 260 0
-13 -15 261 0
13 -15 -261 0
-13 15 -261 0
13 15 261 0
-21 -25 262 0
21 -25 -262 0
-21 25 -262 0
21 25 262 0
27 -35 263 0
-27 -35 -263 0
27 35 -263 0
-27 35 263 0
-36 -41 264 0
36 -41 -264 0
-36 41 -264 0
36 41 264 0
-44 -48 265 0
44 -48 -265 0
-44 48 -265 0
44 48 265 0
256 -257 266 0
-256 -257 -266 0
256 257 -266 0
-256 257 266 0
258 -259 267 0
-258 -259 -267 0
258 259 -267 0
-258 259 267 0
260 -261 268 0
-260 -261 -268 0
260 261 -268 0
-260 261 268 0
262 -263 269 0
-262 -263 -269 0
262 263 -269 0
-262 263 269 0
264 -265 270 0
-264 -265 -270 0
264 265 -270 0
-264 265 270 0
266 -267 271 0
-266 -267 -271 0
266 267 -271 0
-266 267 271 0
268 -269 272 0
-268 -269 -272 0
268 269 -272 0
-268 269 272 0
-270 -271 272 0
270 -271 -272 0
-270 271 -272 0
270 271 272 0
-5 -7 273 0
5 -7 -273 0
-5 7 -273 0
5 7 273 0
-9 13 274 0
9 13 -274 0
-9 -13 -274 0
9 -13 274 0
14 -15 275 0
-14 -15 -275 0
14 15 -275 0
-14 15 275 0
-16 21 276 0
16 21 -276 0
-16 -21 -276 0
16 -21 276 0
-23 25 277 0
23 25 -277 0
-23 -25 -277 0
23 -25 277 0
-28 29 278 0
28 29 -278 0
-28 -29 -278 0
28 -29 278 0
-30 31 279 0
30 31 -279 0
-30 -31 -279 0
30 -31 279 0
32 35 280 0
-32 35 -280 0
32 -35 -280 0
-32 -35 280 0
36 -38 281 0
-36 -38 -281 0
36 38 -281 0
-36 38 281 0
-41 -42 282 0
41 -42 -282 0
-41 42 -282 0
41 42 282 0
43 -44 283 0
-43 -44 -283 0
43 44 -283 0
-43 44 283 0
45 -48 284 0
-45 -48 -284 0
45 48 -284 0
-45 48 284 0
49 50 285 0
-49 50 -285 0
49 -50 -285 0
-49 -50 285 0
273 -274 286 0
-273 -274 -286 0
273 274 -286 0
-273 274 286 0
275 -276 287 0
-275 -276 -287 0
275 276 -287 0
-275 276 287 0
277 -278 288 0
-277 -278 -288 0
277 278 -288 0
-277 278 288 0
279 -280 289 0
-279 -280 -289 0
279 280 -289 0
-279 280 289 0
281 -282 290 0
-281 -282 -290 0
281 282 -290 0
-281 282 290 0
283 -284 291 0
-283 -284 -291 0
283 284 -291 0
-283 284 291 0
285 -286 292 0
-285 -286 -292 0
285 286 -292 0
-285 286 292 0
287 -288 293 0
-287 -288 -293 0
287 288 -293 0
-287 288 293 0
289 -290 294 0
-289 -290 -294 0
289 290 -294 0
-289 290 294 0
291 -292 295 0
-291 -292 -295 0
291 292 -295 0
-291 292 295 0
293 -294 296 0
-293 -294 -296 0
293 294 -296 0
-293 294 296 0
295 296 0
-295 -296 0
1 2 297 0
-1 2 -297 0
1 -2 -297 0
-1 -2 297 0
3 -4 298 0
-3 -4 -298 0
3 4 -298 0
-3 4 298 0
9 -10 299 0
-9 -10 -299 0
9 10 -299 0
-9 10 299 0
11 12 300 0
-11 12 -300 0
11 -12 -300 0
-11 -12 300 0
13 -15 301 0
-13 -15 -301 0
13 15 -301 0
-13 15 301 0
20 -21 302 0
-20 -21 -302 0
20 21 -302 0
-20 21 302 0
-23 -25 303 0
23 -25 -303 0
-23 25 -303 0
23 25 303 0
28 29 304 0
-28 29 -304 0
28 -29 -304 0
-28 -29 304 0
30 32 305 0
-30 32 -305 0
30 -32 -305 0
-30 -32 305 0
-33 -35 306 0
33 -35 -306 0
-33 35 -306 0
33 35 306 0
36 37 307 0
-36 37 -307 0
36 -37 -307 0
-36 -37 307 0
-41 -44 308 0
41 -44 -308 0
-41 44 -308 0
41 44 308 0
47 -48 309 0
-47 -48 -309 0
47 48 -309 0
-47 48 309 0
296 -297 310 0
-296 -297 -310 0
296 297 -310 0
-296 297 310 0
298 -299 311 0
-298 -299 -311 0
298 299 -311 0
-298 299 311 0
300 -301 312 0
-300 -301 -312 0
300 301 -312 0
-300 301 312 0
302 -303 313 0
-302 -303 -313 0
302 303 -313 0
-302 303 313 0
304 -305 314 0
-304 -305 -314 0
304 305 -314 0
-304 305 314 0
306 -307 315 0
-306 -307 -315 0
306 307 -315 0
-306 307 315 0
308 -309 316 0
-308 -309 -316 0
308 309 -316 0
-308 309 316 0
310 -311 317 0
-310 -311 -317 0
310 311 -317 0
-310 311 317 0
312 -313 318 0
-312 -313 -318 0
312 313 -318 0
-312 313 318 0
314 -315 319 0
-314 -315 -319 0
314 315 -319 0
-314 315 319 0
316 -317 320 0
-316 -317 -320 0
316 317 -320 0
-316 317 320 0
318 -319 321 0
-318 -319 -321 0
318 319 -321 0
-318 319 321 0
320 321 0
-320 -321 0
-1 2 322 0
1 2 -322 0
-1 -2 -322 0
1 -2 322 0
3 -9 323 0
-3 -9 -323 0
3 9 -323 0
-3 9 323 0
-12 15 324 0
12 15 -324 0
-12 -15 -324 0
12 -15 324 0
16 -18 325 0
-16 -18 -325 0
16 18 -325 0
-16 18 325 0
25 26 326 0
-25 26 -326 0
25 -26 -326 0
-25 -26 326 0
28 -30 327 0
-28 -30 -327 0
28 30 -327 0
-28 30 327 0
-33 -34 328 0
33 -34 -328 0
-33 34 -328 0
33 34 328 0
-37 -40 329 0
37 -40 -329 0
-37 40 -329 0
37 40 329 0
41 -42 330 0
-41 -42 -330 0
41 42 -330 0
-41 42 330 0
43 44 331 0
-43 44 -331 0
43 -44 -331 0
-43 -44 331 0
45 -46 332 0
-45 -46 -332 0
45 46 -332 0
-45 46 332 0
321 -322 333 0
-321 -322 -333 0
321 322 -333 0
-321 322 333 0
323 -324 334 0
-323 -324 -334 0
323 324 -334 0
-323 324 334 0
325 -326 335 0
-325 -326 -335 0
325 326 -335 0
-325 326 335 0
327 -328 336 0
-327 -328 -336 0
327 328 -336 0
-327 328 336 0
329 -330 337 0
-329 -330 -337 0
329 330 -337 0
-329 330 337 0
331 -332 338 0
-331 -332 -338 0
331 332 -338 0
-331 332 338 0
333 -334 339 0
-333 -334 -339 0
333 334 -339 0
-333 334 339 0
335 -336 340 0
-335 -336 -340 0
335 336 -340 0
-335 336 340 0
337 -338 341 0
-337 -338 -341 0
337 338 -341 0
-337 338 341 0
-339 -340 341 0
339 -340 -341 0
-339 340 -341 0
339 340 341 0
-2 -3 342 0
2 -3 -342 0
-2 3 -342 0
2 3 342 0
-5 8 343 0
5 8 -343 0
-5 -8 -343 0
5 -8 343 0
-14 -15 344 0
14 -15 -344 0
-14 15 -344 0
14 15 344 0
17 -18 345 0
-17 -18 -345 0
17 18 -345 0
-17 18 345 0
-24 -25 346 0
24 -25 -346 0
-24 25 -346 0
24 25 346 0
29 -31 347 0
-29 -31 -347 0
29 31 -347 0
-29 31 347 0
32 -33 348 0
-32 -33 -348 0
32 33 -348 0
-32 33 348 0
-34 36 349 0
34 36 -349 0
-34 -36 -349 0
34 -36 349 0
39 -47 350 0
-39 -47 -350 0
39 47 -350 0
-39 47 350 0
48 49 351 0
-48 49 -351 0
48 -49 -351 0
-48 -49 351 0
342 -343 352 0
-342 -343 -352 0
342 343 -352 0
-342 343 352 0
344 -345 353 0
-344 -345 -353 0
344 345 -353 0
-344 345 353 0
346 -347 354 0
-346 -347 -354 0
346 347 -354 0
-346 347 354 0
348 -349 355 0
-348 -349 -355 0
348 349 -355 0
-348 349 355 0
350 -351 356 0
-350 -351 -356 0
350 351 -356 0
-350 351 356 0
352 -353 357 0
-352 -353 -357 0
352 353 -357 0
-352 353 357 0
354 -355 358 0
-354 -355 -358 0
354 355 -358 0
-354 355 358 0
-356 -357 358 0
356 -357 -358 0
-356 357 -358 0
356 357 358 0
2 -3 359 0
-2 -3 -359 0
2 3 -359 0
-2 3 359 0
-5 -6 360 0
5 -6 -360 0
-5 6 -360 0
5 6 360 0
7 8 361 0
-7 8 -361 0
7 -8 -361 0
-7 -8 361 0
-10 -13 362 0
10 -13 -362 0
-10 13 -362 0
10 13 362 0
14 18 363 0
-14 18 -363 0
14 -18 -363 0
-14 -18 363 0
19 -20 364 0
-19 -20 -364 0
19 20 -364 0
-19 20 364 0
22 -25 365 0
-22 -25 -365 0
22 25 -365 0
-22 25 365 0
28 -29 366 0
-28 -29 -366 0
28 29 -366 0
-28 29 366 0
-30 -31 367 0
30 -31 -367 0
-30 31 -367 0
30 31 367 0
-33 35 368 0
33 35 -368 0
-33 -35 -368 0
33 -35 368 0
37 -39 369 0
-37 -39 -369 0
37 39 -369 0
-37 39 369 0
40 -45 370 0
-40 -45 -370 0
40 45 -370 0
-40 45 370 0
-48 -49 371 0
48 -49 -371 0
-48 49 -371 0
48 49 371 0
359 -360 372 0
-359 -360 -372 0
359 360 -372 0
-359 360 372 0
361 -362 373 0
-361 -362 -373 0
361 362 -373 0
-361 362 373 0
363 -364 374 0
-363 -364 -374 0
363 364 -374 0
-363 364 374 0
365 -366 375 0
-365 -366 -375 0
365 366 -375 0
-365 366 375 0
367 -368 376 0
-367 -368 -376 0
367 368 -376 0
-367 368 376 0
369 -370 377 0
-369 -370 -377 0
369 370 -377 0
-369 370 377 0
371 -372 378 0
-371 -372 -378 0
371 372 -378 0
-371 372 378 0
373 -374 379 0
-373 -374 -379 0
373 374 -379 0
-373 374 379 0
375 -376 380 0
-375 -376 -380 0
375 376 -380 0
-375 376 380 0
377 -378 381 0
-377 -378 -381 0
377 378 -381 0
-377 378 381 0
379 -380 382 0
-379 -380 -382 0
379 380 -382 0
-379 380 382 0
381 382 0
-381 -382 0
3 9 383 0
-3 9 -383 0
3 -9 -383 0
-3 -9 383 0
-12 -15 384 0
12 -15 -384 0
-12 15 -384 0
12 15 384 0
-16 -24 385 0
16 -24 -385 0
-16 24 -385 0
16 24 385 0
-26 -28 386 0
26 -28 -386 0
-26 28 -386 0
26 28 386 0
-30 -32 387 0
30 -32 -387 0
-30 32 -387 0
30 32 387 0
36 37 388 0
-36 37 -388 0
36 -37 -388 0
-36 -37 388 0
-38 -40 389 0
38 -40 -389 0
-38 40 -389 0
38 40 389 0
-42 -44 390 0
42 -44 -390 0
-42 44 -390 0
42 44 390 0
-46 -49 391 0
46 -49 -391 0
-46 49 -391 0
46 49 391 0
383 -384 392 0
-383 -384 -392 0
383 384 -392 0
-383 384 392 0
385 -386 393 0
-385 -386 -393 0
385 386 -393 0
-385 386 393 0
387 -388 394 0
-387 -388 -394 0
387 388 -394 0
-387 388 394 0
389 -390 395 0
-389 -390 -395 0
389 390 -395 0
-389 390 395 0
391 -392 396 0
-391 -392 -396 0
391 392 -396 0
-391 392 396 0
393 -394 397 0
-393 -394 -397 0
393 394 -397 0
-393 394 397 0
-395 -396 397 0
395 -396 -397 0
-395 396 -397 0
395 396 397 0
1 3 398 0
-1 3 -398 0
1 -3 -398 0
-1 -3 398 0
-4 5 399 0
4 5 -399 0
-4 -5 -399 0
4 -5 399 0
-6 -9 400 0
6 -9 -400 0
-6 9 -400 0
6 9 400 0
-10 -11 401 0
10 -11 -401 0
-10 11 -401 0
10 11 401 0
-12 13 402 0
12 13 -402 0
-12 -13 -402 0
12 -13 402 0
-14 15 403 0
14 15 -403 0
-14 -15 -403 0
14 -15 403 0
16 -17 404 0
-16 -17 -404 0
16 17 -404 0
-16 17 404 0
-18 19 405 0
18 19 -405 0
-18 -19 -405 0
18 -19 405 0
21 23 406 0
-21 23 -406 0
21 -23 -406 0
-21 -23 406 0
24 25 407 0
-24 25 -407 0
24 -25 -407 0
-24 -25 407 0
34 -35 408 0
-34 -35 -408 0
34 35 -408 0
-34 35 408 0
37 -38 409 0
-37 -38 -409 0
37 38 -409 0
-37 38 409 0
39 44 410 0
-39 44 -410 0
39 -44 -410 0
-39 -44 410 0
-45 -47 411 0
45 -47 -411 0
-45 47 -411 0
45 47 411 0
-48 -49 412 0
48 -49 -412 0
-48 49 -412 0
48 49 412 0
397 -398 413 0
-397 -398 -413 0
397 398 -413 0
-397 398 413 0
399 -400 414 0
-399 -400 -414 0
399 400 -414 0
-399 400 414 0
401 -402 415 0
-401 -402 -415 0
401 402 -415 0
-401 402 415 0
403 -404 416 0
-403 -404 -416 0
403 404 -416 0
-403 404 416 0
405 -406 417 0
-405 -406 -417 0
405 406 -417 0
-405 406 417 0
407 -408 418 0
-407 -408 -418 0
407 408 -418 0
-407 408 418 0
409 -410 419 0
-409 -410 -419 0
409 410 -419 0
-409 410 419 0
411 -412 420 0
-411 -412 -420 0
411 412 -420 0
-411 412 420 0
413 -414 421 0
-413 -414 -421 0
413 414 -421 0
-413 414 421 0
415 -416 422 0
-415 -416 -422 0
415 416 -422 0
-415 416 422 0
417 -418 423 0
-417 -418 -423 0
417 418 -423 0
-417 418 423 0
419 -420 424 0
-419 -420 -424 0
419 420 -424 0
-419 420 424 0
421 -422 425 0
-421 -422 -425 0
421 422 -425 0
-421 422 425 0
423 -424 426 0
-423 -424 -426 0
423 424 -426 0
-423 424 426 0
425 426 0
-425 -426 0
1 -2 427 0
-1 -2 -427 0
1 2 -427 0
-1 2 427 0
-4 -6 428 0
4 -6 -428 0
-4 6 -428 0
4 6 428 0
-7 10 429 0
7 10 -429 0
-7 -10 -429 0
7 -10 429 0
13 14 430 0
-13 14 -430 0
13 -14 -430 0
-13 -14 430 0
-17 -20 431 0
17 -20 -431 0
-17 20 -431 0
17 20 431 0
-23 -26 432 0
23 -26 -432 0
-23 26 -432 0
23 26 432 0
-27 -29 433 0
27 -29 -433 0
-27 29 -433 0
27 29 433 0
32 -33 434 0
-32 -33 -434 0
32 33 -434 0
-32 33 434 0
34 35 435 0
-34 35 -435 0
34 -35 -435 0
-34 -35 435 0
-37 -39 436 0
37 -39 -436 0
-37 39 -436 0
37 39 436 0
41 42 437 0
-41 42 -437 0
41 -42 -437 0
-41 -42 437 0
-43 -45 438 0
43 -45 -438 0
-43 45 -438 0
43 45 438 0
-46 48 439 0
46 48 -439 0
-46 -48 -439 0
46 -48 439 0
427 -428 440 0
-427 -428 -440 0
427 428 -440 0
-427 428 440 0
429 -430 441 0
-429 -430 -441 0
429 430 -441 0
-429 430 441 0
431 -432 442 0
-431 -432 -442 0
431 432 -442 0
-431 432 442 0
433 -434 443 0
-433 -434 -443 0
433 434 -443 0
-433 434 443 0
435 -436 444 0
-435 -436 -444 0
435 436 -444 0
-435 436 444 0
437 -438 445 0
-437 -438 -445 0
437 438 -445 0
-437 438 445 0
439 -440 446 0
-439 -440 -446 0
439 440 -446 0
-439 440 446 0
441 -442 447 0
-441 -442 -447 0
441 442 -447 0
-441 442 447 0
443 -444 448 0
-443 -444 -448 0
443 444 -448 0
-443 444 448 0
445 -446 449 0
-445 -446 -449 0
445 446 -449 0
-445 446 449 0
447 -448 450 0
-447 -448 -450 0
447 448 -450 0
-447 448 450 0
449 450 0
-449 -450 0
1 -2 451 0
-1 -2 -451 0
1 2 -451 0
-1 2 451 0
-3 -8 452 0
3 -8 -452 0
-3 8 -452 0
3 8 452 0
9 10 453 0
-9 10 -453 0
9 -10 -453 0
-9 -10 453 0
-12 -13 454 0
12 -13 -454 0
-12 13 -454 0
12 13 454 0
-14 -17 455 0
14 -17 -455 0
-14 17 -455 0
14 17 455 0
-18 -22 456 0
18 -22 -456 0
-18 22 -456 0
18 22 456 0
-24 -25 457 0
24 -25 -457 0
-24 25 -457 0
24 25 457 0
26 28 458 0
-26 28 -458 0
26 -28 -458 0
-26 -28 458 0
29 30 459 0
-29 30 -459 0
29 -30 -459 0
-29 -30 459 0
-33 35 460 0
33 35 -460 0
-33 -35 -460 0
33 -35 460 0
36 37 461 0
-36 37 -461 0
36 -37 -461 0
-36 -37 461 0
38 -44 462 0
-38 -44 -462 0
38 44 -462 0
-38 44 462 0
450 -451 463 0
-450 -451 -463 0
450 451 -463 0
-450 451 463 0
452 -453 464 0
-452 -453 -464 0
452 453 -464 0
-452 453 464 0
454 -455 465 0
-454 -455 -465 0
454 455 -465 0
-454 455 465 0
456 -457 466 0
-456 -457 -466 0
456 457 -466 0
-456 457 466 0
458 -459 467 0
-458 -459 -467 0
458 459 -467 0
-458 459 467 0
460 -461 468 0
-460 -461 -468 0
460 461 -468 0
-460 461 468 0
462 -463 469 0
-462 -463 -469 0
462 463 -469 0
-462 463 469 0
464 -465 470 0
-464 -465 -470 0
464 465 -470 0
-464 465 470 0
466 -467 471 0
-466 -467 -471 0
466 467 -471 0
-466 467 471 0
468 -469 472 0
-468 -469 -472 0
468 469 -472 0
-468 469 472 0
470 -471 473 0
-470 -471 -473 0
470 471 -473 0
-470 471 473 0
472 473 0
-472 -473 0
-12 474 0
-24 474 0
-12 -24 475 0
-23 474 0
-12 -23 475 0
-24 -23 475 0
-12 -24 -23 476 0
-22 477 0
-21 477 0
-22 -21 478 0
-20 477 0
-22 -20 478 0
-21 -20 478 0
-22 -21 -20 479 0
-474 480 0
-475 481 0
-476 482 0
-477 480 0
-478 481 0
-479 482 0
-474 -477 481 0
-474 -478 482 0
-474 -479 483 0
-475 -477 482 0
-475 -478 483 0
-475 -479 484 0
-476 -477 483 0
-476 -478 484 0
-476 -479 485 0
-19 486 0
-18 486 0
-19 -18 487 0
-17 486 0
-19 -17 487 0
-18 -17 487 0
-19 -18 -17 488 0
-16 489 0
-15 489 0
-16 -15 490 0
-14 489 0
-16 -14 490 0
-15 -14 490 0
-16 -15 -14 491 0
-486 492 0
-487 493 0
-488 494 0
-489 492 0
-490 493 0
-491 494 0
-486 -489 493 0
-486 -490 494 0
-486 -491 495 0
-487 -489 494 0
-487 -490 495 0
-487 -491 496 0
-488 -489 495 0
-488 -490 496 0
-488 -491 497 0
-480 498 0
-482 499 0
-484 500 0
-492 498 0
-494 499 0
-496 500 0
-480 -492 499 0
-480 -494 500 0
-480 -496 501 0
-482 -492 500 0
-482 -494 501 0
-482 -496 502 0
-484 -492 501 0
-484 -494 502 0
-484 -496 503 0
-481 504 0
-483 505 0
-485 506 0
-493 504 0
-495 505 0
-497 506 0
-481 -493 505 0
-481 -495 506 0
-481 -497 507 0
-483 -493 506 0
-483 -495 507 0
-483 -497 508 0
-485 -493 507 0
-485 -495 508 0
-485 -497 509 0
-499 510 0
-504 510 0
-499 -504 511 0
-500 512 0
-505 512 0
-500 -505 513 0
-501 514 0
-506 514 0
-501 -506 515 0
-502 516 0
-507 516 0
-502 -507 517 0
-503 518 0
-508 518 0
-503 -508 519 0
-13 520 0
-25 520 0
-13 -25 521 0
-11 520 0
-13 -11 521 0
-25 -11 521 0
-13 -25 -11 522 0
-10 523 0
-9 523 0
-10 -9 524 0
-8 523 0
-10 -8 524 0
-9 -8 524 0
-10 -9 -8 525 0
-520 526 0
-521 527 0
-522 528 0
-523 526 0
-524 527 0
-525 528 0
-520 -523 527 0
-520 -524 528 0
-520 -525 529 0
-521 -523 528 0
-521 -524 529 0
-521 -525 530 0
-522 -523 529 0
-522 -524 530 0
-522 -525 531 0
-7 532 0
-6 532 0
-7 -6 533 0
-5 532 0
-7 -5 533 0
-6 -5 533 0
-7 -6 -5 534 0
-4 535 0
-3 535 0
-4 -3 536 0
-2 535 0
-4 -2 536 0
-3 -2 536 0
-4 -3 -2 537 0
-532 538 0
-533 539 0
-534 540 0
-535 538 0
-536 539 0
-537 540 0
-532 -535 539 0
-532 -536 540 0
-532 -537 541 0
-533 -535 540 0
-533 -536 541 0
-533 -537 542 0
-534 -535 541 0
-534 -536 542 0
-534 -537 543 0
-526 544 0
-528 545 0
-530 546 0
-538 544 0
-540 545 0
-542 546 0
-526 -538 545 0
-526 -540 546 0
-526 -542 547 0
-528 -538 546 0
-528 -540 547 0
-528 -542 548 0
-530 -538 547 0
-530 -540 548 0
-530 -542 549 0
-527 550 0
-529 551 0
-531 552 0
-539 550 0
-541 551 0
-543 552 0
-527 -539 551 0
-527 -541 552 0
-527 -543 553 0
-529 -539 552 0
-529 -541 553 0
-529 -543 554 0
-531 -539 553 0
-531 -541 554 0
-531 -543 555 0
-545 556 0
-550 556 0
-545 -550 557 0
-546 558 0
-551 558 0
-546 -551 559 0
-547 560 0
-552 560 0
-547 -552 561 0
-548 562 0
-553 562 0
-548 -553 563 0
-549 564 0
-554 564 0
-549 -554 565 0
-1 566 0
-37 566 0
-1 -37 567 0
-49 566 0
-1 -49 567 0
-37 -49 567 0
-1 -37 -49 568 0
-48 569 0
-47 569 0
-48 -47 570 0
-46 569 0
-48 -46 570 0
-47 -46 570 0
-48 -47 -46 571 0
-566 572 0
-567 573 0
-568 574 0
-569 572 0
-570 573 0
-571 574 0
-566 -569 573 0
-566 -570 574 0
-566 -571 575 0
-567 -569 574 0
-567 -570 575 0
-567 -571 576 0
-568 -569 575 0
-568 -570 576 0
-568 -571 577 0
-45 578 0
-44 578 0
-45 -44 579 0
-43 578 0
-45 -43 579 0
-44 -43 579 0
-45 -44 -43 580 0
-42 581 0
-41 581 0
-42 -41 582 0
-40 581 0
-42 -40 582 0
-41 -40 582 0
-42 -41 -40 583 0
-578 584 0
-579 585 0
-580 586 0
-581 584 0
-582 585 0
-583 586 0
-578 -581 585 0
-578 -582 586 0
-578 -583 587 0
-579 -581 586 0
-579 -582 587 0
-579 -583 588 0
-580 -581 587 0
-580 -582 588 0
-580 -583 589 0
-572 590 0
-574 591 0
-576 592 0
-584 590 0
-586 591 0
-588 592 0
-572 -584 591 0
-572 -586 592 0
-572 -588 593 0
-574 -584 592 0
-574 -586 593 0
-574 -588 594 0
-576 -584 593 0
-576 -586 594 0
-576 -588 595 0
-573 596 0
-575 597 0
-577 598 0
-585 596 0
-587 597 0
-589 598 0
-573 -585 597 0
-573 -587 598 0
-573 -589 599 0
-575 -585 598 0
-575 -587 599 0
-575 -589 600 0
-577 -585 599 0
-577 -587 600 0
-577 -589 601 0
-591 602 0
-596 602 0
-591 -596 603 0
-592 604 0
-597 604 0
-592 -597 605 0
-593 606 0
-598 606 0
-593 -598 607 0
-594 608 0
-599 608 0
-594 -599 609 0
-595 610 0
-600 610 0
-595 -600 611 0
-39 612 0
-38 612 0
-39 -38 613 0
-50 612 0
-39 -50 613 0
-38 -50 613 0
-39 -38 -50 614 0
-36 615 0
-35 615 0
-36 -35 616 0
-34 615 0
-36 -34 616 0
-35 -34 616 0
-36 -35 -34 617 0
-612 618 0
-613 619 0
-614 620 0
-615 618 0
-616 619 0
-617 620 0
-612 -615 619 0
-612 -616 620 0
-612 -617 621 0
-613 -615 620 0
-613 -616 621 0
-613 -617 622 0
-614 -615 621 0
-614 -616 622 0
-614 -617 623 0
-33 624 0
-32 624 0
-33 -32 625 0
-31 624 0
-33 -31 625 0
-32 -31 625 0
-33 -32 -31 626 0
-30 627 0
-29 627 0
-30 -29 628 0
-28 629 0
-27 629 0
-28 -27 630 0
-26 629 0
-28 -26 630 0
-27 -26 630 0
-28 -27 -26 631 0
-627 632 0
-628 633 0
-629 632 0
-630 633 0
-631 634 0
-627 -629 633 0
-627 -630 634 0
-627 -631 635 0
-628 -629 634 0
-628 -630 635 0
-628 -631 636 0
-624 637 0
-625 638 0
-626 639 0
-632 637 0
-633 638 0
-634 639 0
-635 640 0
-636 641 0
-624 -632 638 0
-624 -633 639 0
-624 -634 640 0
-624 -635 641 0
-624 -636 642 0
-625 -632 639 0
-625 -633 640 0
-625 -634 641 0
-625 -635 642 0
-625 -636 643 0
-626 -632 640 0
-626 -633 641 0
-626 -634 642 0
-626 -635 643 0
-626 -636 644 0
-618 645 0
-620 646 0
-622 647 0
-637 645 0
-639 646 0
-641 647 0
-643 648 0
-618 -637 646 0
-618 -639 647 0
-618 -641 648 0
-618 -643 649 0
-620 -637 647 0
-620 -639 648 0
-620 -641 649 0
-620 -643 650 0
-622 -637 648 0
-622 -639 649 0
-622 -641 650 0
-622 -643 651 0
-619 652 0
-621 653 0
-623 654 0
-638 652 0
-640 653 0
-642 654 0
-644 655 0
-619 -638 653 0
-619 -640 654 0
-619 -642 655 0
-619 -644 656 0
-621 -638 654 0
-621 -640 655 0
-621 -642 656 0
-621 -644 657 0
-623 -638 655 0
-623 -640 656 0
-623 -642 657 0
-623 -644 658 0
-646 659 0
-652 659 0
-646 -652 660 0
-647 661 0
-653 661 0
-647 -653 662 0
-648 663 0
-654 663 0
-648 -654 664 0
-649 665 0
-655 665 0
-649 -655 666 0
-650 667 0
-656 667 0
-650 -656 668 0
-651 669 0
-657 669 0
-651 -657 670 0
-590 671 0
-605 672 0
-609 673 0
-645 671 0
-662 672 0
-666 673 0
-670 674 0
-590 -645 672 0
-590 -662 673 0
-590 -666 674 0
-590 -670 675 0
-605 -645 673 0
-605 -662 674 0
-605 -666 675 0
-605 -670 676 0
-609 -645 674 0
-609 -662 675 0
-609 -666 676 0
-603 677 0
-607 678 0
-611 679 0
-660 677 0
-664 678 0
-668 679 0
-603 -660 678 0
-603 -664 679 0
-603 -668 680 0
-607 -660 679 0
-607 -664 680 0
-607 -668 681 0
-611 -660 680 0
-611 -664 681 0
-672 682 0
-677 682 0
-672 -677 683 0
-673 684 0
-678 684 0
-673 -678 685 0
-674 686 0
-679 686 0
-674 -679 687 0
-675 688 0
-680 688 0
-675 -680 689 0
-676 690 0
-681 690 0
-676 -681 691 0
-602 692 0
-606 693 0
-610 694 0
-659 692 0
-663 693 0
-667 694 0
-658 695 0
-602 -659 693 0
-602 -663 694 0
-602 -667 695 0
-602 -658 696 0
-606 -659 694 0
-606 -663 695 0
-606 -667 696 0
-606 -658 697 0
-610 -659 695 0
-610 -663 696 0
-610 -667 697 0
-604 698 0
-608 699 0
-601 700 0
-661 698 0
-665 699 0
-669 700 0
-604 -661 699 0
-604 -665 700 0
-604 -669 701 0
-608 -661 700 0
-608 -665 701 0
-608 -669 702 0
-601 -661 701 0
-601 -665 702 0
-693 703 0
-698 703 0
-693 -698 704 0
-694 705 0
-699 705 0
-694 -699 706 0
-695 707 0
-700 707 0
-695 -700 708 0
-696 709 0
-701 709 0
-696 -701 710 0
-697 711 0
-702 711 0
-682 712 0
-692 712 0
-682 -692 713 0
-683 714 0
-703 714 0
-683 -703 715 0
-684 716 0
-704 716 0
-684 -704 717 0
-685 718 0
-705 718 0
-685 -705 719 0
-686 720 0
-706 720 0
-686 -706 721 0
-687 722 0
-707 722 0
-687 -707 723 0
-688 724 0
-708 724 0
-688 -708 725 0
-689 726 0
-709 726 0
-689 -709 727 0
-690 728 0
-710 728 0
-690 -710 729 0
-691 730 0
-711 730 0
-691 -711 731 0
-544 732 0
-559 733 0
-563 734 0
-671 732 0
-715 733 0
-719 734 0
-723 735 0
-727 736 0
-731 737 0
-544 -671 733 0
-544 -715 734 0
-544 -719 735 0
-544 -723 736 0
-544 -727 737 0
-559 -671 734 0
-559 -715 735 0
-559 -719 736 0
-559 -723 737 0
-563 -671 735 0
-563 -715 736 0
-563 -719 737 0
-557 738 0
-561 739 0
-565 740 0
-713 738 0
-717 739 0
-721 740 0
-725 741 0
-729 742 0
-557 -713 739 0
-557 -717 740 0
-557 -721 741 0
-557 -725 742 0
-561 -713 740 0
-561 -717 741 0
-561 -721 742 0
-565 -713 741 0
-565 -717 742 0
-733 743 0
-738 743 0
-733 -738 744 0
-734 745 0
-739 745 0
-734 -739 746 0
-735 747 0
-740 747 0
-735 -740 748 0
-736 749 0
-741 749 0
-736 -741 750 0
-737 751 0
-742 751 0
-737 -742 752 0
-556 753 0
-560 754 0
-564 755 0
-712 753 0
-716 754 0
-720 755 0
-724 756 0
-728 757 0
-556 -712 754 0
-556 -716 755 0
-556 -720 756 0
-556 -724 757 0
-556 -728 758 0
-560 -712 755 0
-560 -716 756 0
-560 -720 757 0
-560 -724 758 0
-564 -712 756 0
-564 -716 757 0
-564 -720 758 0
-558 759 0
-562 760 0
-555 761 0
-714 759 0
-718 760 0
-722 761 0
-726 762 0
-730 763 0
-558 -714 760 0
-558 -718 761 0
-558 -722 762 0
-558 -726 763 0
-562 -714 761 0
-562 -718 762 0
-562 -722 763 0
-555 -714 762 0
-555 -718 763 0
-754 764 0
-759 764 0
-754 -759 765 0
-755 766 0
-760 766 0
-755 -760 767 0
-756 768 0
-761 768 0
-756 -761 769 0
-757 770 0
-762 770 0
-757 -762 771 0
-758 772 0
-763 772 0
-743 773 0
-753 773 0
-743 -753 774 0
-744 775 0
-764 775 0
-744 -764 776 0
-745 777 0
-765 777 0
-745 -765 778 0
-746 779 0
-766 779 0
-746 -766 780 0
-747 781 0
-767 781 0
-747 -767 782 0
-748 783 0
-768 783 0
-748 -768 784 0
-749 785 0
-769 785 0
-749 -769 786 0
-750 787 0
-770 787 0
-750 -770 788 0
-751 789 0
-771 789 0
-751 -771 790 0
-752 791 0
-772 791 0
-752 -772 792 0
-498 793 0
-513 794 0
-517 795 0
-732 793 0
-776 794 0
-780 795 0
-784 796 0
-788 797 0
-792 798 0
-498 -732 794 0
-498 -776 795 0
-498 -780 796 0
-498 -784 797 0
-498 -788 798 0
-513 -732 795 0
-513 -776 796 0
-513 -780 797 0
-513 -784 798 0
-517 -732 796 0
-517 -776 797 0
-517 -780 798 0
-511 799 0
-515 800 0
-519 801 0
-774 799 0
-778 800 0
-782 801 0
-786 802 0
-790 803 0
-511 -774 800 0
-511 -778 801 0
-511 -782 802 0
-511 -786 803 0
-515 -774 801 0
-515 -778 802 0
-515 -782 803 0
-519 -774 802 0
-519 -778 803 0
-794 804 0
-799 804 0
-794 -799 805 0
-795 806 0
-800 806 0
-795 -800 807 0
-796 808 0
-801 808 0
-796 -801 809 0
-797 810 0
-802 810 0
-797 -802 811 0
-798 812 0
-803 812 0
-798 -803 813 0
-510 814 0
-514 815 0
-518 816 0
-773 814 0
-777 815 0
-781 816 0
-785 817 0
-789 818 0
-510 -773 815 0
-510 -777 816 0
-510 -781 817 0
-510 -785 818 0
-510 -789 819 0
-514 -773 816 0
-514 -777 817 0
-514 -781 818 0
-514 -785 819 0
-518 -773 817 0
-518 -777 818 0
-518 -781 819 0
-512 820 0
-516 821 0
-509 822 0
-775 820 0
-779 821 0
-783 822 0
-787 823 0
-791 824 0
-512 -775 821 0
-512 -779 822 0
-512 -783 823 0
-512 -787 824 0
-516 -775 822 0
-516 -779 823 0
-516 -783 824 0
-509 -775 823 0
-509 -779 824 0
-815 825 0
-820 825 0
-815 -820 826 0
-816 827 0
-821 827 0
-816 -821 828 0
-817 829 0
-822 829 0
-817 -822 830 0
-818 831 0
-823 831 0
-818 -823 832 0
-819 833 0
-824 833 0
-804 834 0
-814 834 0
-804 -814 835 0
-805 836 0
-825 836 0
-805 -825 837 0
-806 838 0
-826 838 0
-806 -826 839 0
-807 840 0
-827 840 0
-807 -827 841 0
-808 842 0
-828 842 0
-808 -828 843 0
-809 844 0
-829 844 0
-809 -829 845 0
-810 846 0
-830 846 0
-810 -830 847 0
-811 848 0
-831 848 0
-811 -831 849 0
-812 850 0
-832 850 0
-812 -832 851 0
-813 852 0
-833 852 0
-813 -833 853 0
-853 0
